# RHF/STO-3G 

Water molecule, minimal basis 

0 1
O
H 1 0.96
H 1 0.96 2 109.471221

