#p opt RHF/STO-3G 

Water molecule, minimal basis 

0 1
8                   0.000000    0.000000    0.000000
1                   0.000000    0.000000    0.960000
1                   0.905097    0.000000   -0.320000

